instances/ampl_instances/ss_inst_5b_90n.dat
param set_len = 90;
param target := 769;
param values := [1] 24 [2] 30 [3] 17 [4] 27 [5] 8 [6] 28 [7] 26 [8] 9 [9] 1 [10] 11 [11] 1 [12] 5 [13] 3 [14] 19 [15] 29 [16] 1 [17] 14 [18] 3 [19] 7 [20] 1 [21] 5 [22] 11 [23] 11 [24] 19 [25] 10 [26] 15 [27] 24 [28] 25 [29] 30 [30] 1 [31] 8 [32] 4 [33] 19 [34] 22 [35] 1 [36] 26 [37] 13 [38] 22 [39] 31 [40] 24 [41] 27 [42] 10 [43] 29 [44] 23 [45] 22 [46] 16 [47] 26 [48] 2 [49] 3 [50] 18 [51] 23 [52] 27 [53] 17 [54] 15 [55] 22 [56] 20 [57] 3 [58] 8 [59] 15 [60] 21 [61] 19 [62] 0 [63] 31 [64] 15 [65] 15 [66] 30 [67] 14 [68] 17 [69] 18 [70] 29 [71] 18 [72] 13 [73] 23 [74] 10 [75] 25 [76] 27 [77] 6 [78] 21 [79] 26 [80] 10 [81] 24 [82] 1 [83] 19 [84] 26 [85] 16 [86] 5 [87] 11 [88] 22 [89] 13 [90] 20 ;
